problem_generation/data/GISP/train/er_n=61_m=1058_p=0.60_SET2_setparam=100.00_alpha=0.50_714.lp
maximize
OBJ:100x0 + 100x1 + 100x2 + 100x3 + 100x4 + 100x5 + 100x6 + 100x7 + 100x8 + 100x9 + 100x10 + 100x11 + 100x12 + 100x13 + 100x14 + 100x15 + 100x16 + 100x17 + 100x18 + 100x19 + 100x20 + 100x21 + 100x22 + 100x23 + 100x24 + 100x25 + 100x26 + 100x27 + 100x28 + 100x29 + 100x30 + 100x31 + 100x32 + 100x33 + 100x34 + 100x35 + 100x36 + 100x37 + 100x38 + 100x39 + 100x40 + 100x41 + 100x42 + 100x43 + 100x44 + 100x45 + 100x46 + 100x47 + 100x48 + 100x49 + 100x50 + 100x51 + 100x52 + 100x53 + 100x54 + 100x55 + 100x56 + 100x57 + 100x58 + 100x59 + 100x60 - y36_53 - y15_30 - y7_26 - y28_58 - y18_35 - y8_18 - y21_37 - y40_50 - y29_59 - y40_59 - y10_27 - y10_36 - y2_32 - y25_34 - y33_56 - y44_56 - y14_15 - y32_60 - y22_37 - y3_42 - y14_51 - y15_16 - y7_12 - y47_48 - y15_25 - y17_44 - y7_21 - y36_57 - y9_49 - y48_49 - y21_32 - y6_43 - y40_45 - y2_27 - y25_29 - y2_36 - y44_51 - y2_45 - y22_23 - y51_59 - y2_54 - y43_55 - y3_37 - y7_16 - y17_48 - y5_55 - y6_29 - y29_31 - y29_40 - y21_36 - y29_49 - y40_49 - y21_45 - y10_26 - y33_37 - y2_31 - y10_44 - y2_40 - y22_27 - y35_55 - y16_60 - y47_56 - y5_50 - y6_15 - y9_57 - y29_35 - y6_51 - y20_53 - y10_39 - y12_58 - y14_18 - y43_54 - y1_57 - y17_20 - y9_34 - y5_45 - y6_10 - y28_47 - y9_43 - y17_56 - y50_53 - y21_26 - y20_39 - y10_16 - y10_25 - y31_57 - y54_59 - y12_53 - y24_27 - y51_53 - y1_34 - y13_36 - y35_36 - y1_43 - y24_45 - y32_58 - y57_60 - y28_33 - y9_29 - y5_40 - y28_42 - y6_23 - y42_44 - y6_32 - y8_51 - y30_60 - y11_56 - y2_16 - y12_57 - y13_22 - y1_29 - y24_40 - y13_49 - y35_49 - y5_8 - y5_17 - y17_19 - y6_9 - y27_41 - y27_50 - y30_46 - y42_57 - y11_60 - y20_38 - y2_11 - y12_52 - y1_15 - y13_26 - y24_26 - y32_39 - y34_58 - y1_33 - y13_35 - y24_35 - y13_44 - y38_46 - y17_23 - y9_19 - y49_55 - y5_30 - y5_39 - y27_36 - y8_32 - y8_41 - y30_50 - y12_20 - y12_29 - y23_29 - y20_42 - y12_38 - y4_34 - y1_10 - y4_43 - y12_56 - y34_53 - y45_53 - y1_28 - y16_26 - y16_35 - y1_46 - y9_14 - y26_57 - y49_59 - y19_27 - y27_40 - y19_36 - y0_32 - y19_45 - y30_54 - y11_50 - y12_15 - y20_28 - y23_24 - y41_60 - y4_38 - y34_39 - y1_14 - y34_48 - y34_57 - y1_32 - y16_30 - y26_34 - y15_43 - y26_43 - y7_39 - y18_39 - y49_54 - y18_48 - y8_13 - y7_57 - y19_22 - y27_44 - y11_27 - y19_49 - y0_45 - y41_46 - y30_58 - y41_55 - y33_51 - y4_24 - y33_60 - y23_37 - y44_60 - y3_46 - y15_29 - y26_29 - y5_6 - y15_38 - y38_40 - y7_34 - y38_49 - y15_56 - y26_56 - y0_4 - y8_35 - y8_44 - y19_44 - y12_14 - y41_50 - y12_23 - y41_59 - y44_55 - y37_43 - y22_54 - y45_56 - y3_59 - y26_33 - y18_29 - y26_42 - y15_51 - y18_47 - y19_21 - y0_17 - y29_53 - y40_53 - y0_35 - y41_45 - y4_5 - y41_54 - y10_48 - y44_50 - y2_44 - y25_46 - y10_57 - y22_40 - y3_36 - y3_45 - y14_45 - y3_54 - y14_54 - y7_15 - y15_28 - y26_37 - y7_33 - y26_46 - y7_42 - y18_42 - y0_3 - y29_39 - y8_16 - y19_25 - y6_55 - y29_57 - y40_57 - y11_30 - y10_52 - y25_50 - y22_26 - y2_57 - y22_35 - y3_49 - y55_59 - y15_32 - y26_32 - y28_51 - y7_28 - y8_11 - y6_41 - y29_43 - y48_56 - y0_16 - y21_48 - y21_57 - y41_44 - y10_38 - y2_34 - y25_36 - y51_57 - y25_54 - y3_17 - y13_58 - y3_35 - y15_18 - y17_46 - y28_46 - y9_42 - y9_51 - y0_2 - y6_36 - y21_34 - y6_45 - y29_47 - y10_15 - y2_38 - y3_12 - y32_48 - y22_25 - y43_48 - y14_21 - y43_57 - y24_53 - y14_30 - y16_58 - y17_41 - y9_46 - y6_22 - y9_55 - y29_33 - y21_38 - y6_49 - y39_55 - y31_60 - y2_42 - y3_7 - y51_56 - y13_39 - y35_48 - y3_25 - y16_44 - y24_57 - y9_23 - y5_43 - y6_17 - y6_26 - y10_14 - y20_46 - y20_55 - y31_55 - y23_60 - y2_37 - y32_38 - y43_47 - y51_60 - y32_56 - y35_52 - y5_20 - y36_44 - y3_56 - y6_12 - y9_45 - y6_21 - y21_28 - y8_58 - y19_58 - y20_41 - y2_23 - y31_59 - y4_60 - y16_25 - y32_42 - y1_36 - y16_34 - y13_47 - y24_47 - y1_54 - y17_26 - y38_58 - y5_51 - y6_16 - y8_53 - y30_53 - y23_32 - y2_9 - y31_45 - y39_58 - y23_41 - y12_50 - y1_22 - y32_37 - y32_46 - y43_46 - y24_42 - y35_42 - y16_38 - y16_47 - y38_44 - y17_21 - y46_57 - y9_17 - y28_30 - y15_60 - y26_60 - y5_37 - y9_35 - y27_43 - y30_39 - y27_52 - y8_48 - y8_57 - y42_59 - y11_53 - y12_18 - y20_40 - y23_36 - y31_58 - y4_41 - y23_54 - y13_19 - y1_26 - y13_28 - y34_60 - y45_60 - y13_37 - y24_37 - y16_33 - y16_42 - y15_55 - y26_55 - y49_57 - y7_51 - y27_29 - y7_60 - y18_60 - y30_34 - y19_43 - y11_48 - y20_35 - y12_31 - y23_31 - y20_44 - y4_27 - y4_36 - y4_45 - y53_59 - y4_54 - y16_19 - y34_55 - y45_55 - y16_28 - y19_20 - y19_38 - y30_38 - y11_34 - y0_43 - y8_56 - y19_56 - y11_52 - y41_53 - y52_53 - y4_22 - y33_58 - y23_44 - y13_18 - y53_54 - y1_25 - y34_59 - y56_59 - y15_27 - y5_13 - y7_32 - y15_45 - y18_41 - y15_54 - y27_28 - y48_60 - y8_33 - y30_33 - y27_46 - y19_42 - y30_42 - y0_47 - y20_25 - y12_21 - y52_57 - y4_17 - y33_53 - y4_26 - y10_60 - y1_2 - y4_35 - y34_45 - y3_39 - y14_39 - y14_48 - y37_50 - y14_57 - y37_59 - y7_18 - y26_31 - y26_40 - y38_42 - y7_36 - y26_49 - y7_54 - y8_19 - y48_55 - y11_15 - y19_37 - y11_33 - y41_43 - y4_12 - y33_48 - y44_48 - y10_55 - y25_53 - y22_29 - y22_38 - y3_34 - y3_43 - y14_43 - y14_52 - y7_22 - y8_14 - y48_59 - y6_53 - y40_55 - y33_34 - y4_7 - y25_39 - y44_52 - y2_46 - y10_59 - y34_44 - y3_38 - y14_38 - y22_51 - y37_40 - y3_47 - y7_8 - y14_56
 Subject to
C1: x0+x2-y0_2 <=1 
C2: x0+x3-y0_3 <=1 
C3: x0+x4-y0_4 <=1 
C4: x0+x8 <=1 
C5: x0+x9 <=1 
C6: x0+x10 <=1 
C7: x0+x15 <=1 
C8: x0+x16-y0_16 <=1 
C9: x0+x17-y0_17 <=1 
C10: x0+x20 <=1 
C11: x0+x22 <=1 
C12: x0+x24 <=1 
C13: x0+x27 <=1 
C14: x0+x32-y0_32 <=1 
C15: x0+x33 <=1 
C16: x0+x35-y0_35 <=1 
C17: x0+x36 <=1 
C18: x0+x41 <=1 
C19: x0+x43-y0_43 <=1 
C20: x0+x44 <=1 
C21: x0+x45-y0_45 <=1 
C22: x0+x46 <=1 
C23: x0+x47-y0_47 <=1 
C24: x0+x50 <=1 
C25: x0+x51 <=1 
C26: x0+x52 <=1 
C27: x0+x53 <=1 
C28: x0+x55 <=1 
C29: x0+x56 <=1 
C30: x0+x58 <=1 
C31: x1+x2-y1_2 <=1 
C32: x1+x10-y1_10 <=1 
C33: x1+x11 <=1 
C34: x1+x14-y1_14 <=1 
C35: x1+x15-y1_15 <=1 
C36: x1+x17 <=1 
C37: x1+x18 <=1 
C38: x1+x20 <=1 
C39: x1+x21 <=1 
C40: x1+x22-y1_22 <=1 
C41: x1+x24 <=1 
C42: x1+x25-y1_25 <=1 
C43: x1+x26-y1_26 <=1 
C44: x1+x27 <=1 
C45: x1+x28-y1_28 <=1 
C46: x1+x29-y1_29 <=1 
C47: x1+x30 <=1 
C48: x1+x31 <=1 
C49: x1+x32-y1_32 <=1 
C50: x1+x33-y1_33 <=1 
C51: x1+x34-y1_34 <=1 
C52: x1+x36-y1_36 <=1 
C53: x1+x41 <=1 
C54: x1+x43-y1_43 <=1 
C55: x1+x46-y1_46 <=1 
C56: x1+x50 <=1 
C57: x1+x54-y1_54 <=1 
C58: x1+x55 <=1 
C59: x1+x56 <=1 
C60: x1+x57-y1_57 <=1 
C61: x1+x58 <=1 
C62: x1+x59 <=1 
C63: x2+x3 <=1 
C64: x2+x4 <=1 
C65: x2+x5 <=1 
C66: x2+x6 <=1 
C67: x2+x7 <=1 
C68: x2+x9-y2_9 <=1 
C69: x2+x11-y2_11 <=1 
C70: x2+x13 <=1 
C71: x2+x15 <=1 
C72: x2+x16-y2_16 <=1 
C73: x2+x18 <=1 
C74: x2+x20 <=1 
C75: x2+x23-y2_23 <=1 
C76: x2+x27-y2_27 <=1 
C77: x2+x29 <=1 
C78: x2+x31-y2_31 <=1 
C79: x2+x32-y2_32 <=1 
C80: x2+x34-y2_34 <=1 
C81: x2+x35 <=1 
C82: x2+x36-y2_36 <=1 
C83: x2+x37-y2_37 <=1 
C84: x2+x38-y2_38 <=1 
C85: x2+x40-y2_40 <=1 
C86: x2+x42-y2_42 <=1 
C87: x2+x44-y2_44 <=1 
C88: x2+x45-y2_45 <=1 
C89: x2+x46-y2_46 <=1 
C90: x2+x49 <=1 
C91: x2+x50 <=1 
C92: x2+x54-y2_54 <=1 
C93: x2+x55 <=1 
C94: x2+x57-y2_57 <=1 
C95: x2+x59 <=1 
C96: x2+x60 <=1 
C97: x3+x4 <=1 
C98: x3+x6 <=1 
C99: x3+x7-y3_7 <=1 
C100: x3+x9 <=1 
C101: x3+x12-y3_12 <=1 
C102: x3+x15 <=1 
C103: x3+x16 <=1 
C104: x3+x17-y3_17 <=1 
C105: x3+x19 <=1 
C106: x3+x21 <=1 
C107: x3+x24 <=1 
C108: x3+x25-y3_25 <=1 
C109: x3+x28 <=1 
C110: x3+x32 <=1 
C111: x3+x33 <=1 
C112: x3+x34-y3_34 <=1 
C113: x3+x35-y3_35 <=1 
C114: x3+x36-y3_36 <=1 
C115: x3+x37-y3_37 <=1 
C116: x3+x38-y3_38 <=1 
C117: x3+x39-y3_39 <=1 
C118: x3+x41 <=1 
C119: x3+x42-y3_42 <=1 
C120: x3+x43-y3_43 <=1 
C121: x3+x45-y3_45 <=1 
C122: x3+x46-y3_46 <=1 
C123: x3+x47-y3_47 <=1 
C124: x3+x48 <=1 
C125: x3+x49-y3_49 <=1 
C126: x3+x51 <=1 
C127: x3+x54-y3_54 <=1 
C128: x3+x55 <=1 
C129: x3+x56-y3_56 <=1 
C130: x3+x57 <=1 
C131: x3+x59-y3_59 <=1 
C132: x4+x5-y4_5 <=1 
C133: x4+x6 <=1 
C134: x4+x7-y4_7 <=1 
C135: x4+x8 <=1 
C136: x4+x12-y4_12 <=1 
C137: x4+x13 <=1 
C138: x4+x16 <=1 
C139: x4+x17-y4_17 <=1 
C140: x4+x19 <=1 
C141: x4+x20 <=1 
C142: x4+x21 <=1 
C143: x4+x22-y4_22 <=1 
C144: x4+x23 <=1 
C145: x4+x24-y4_24 <=1 
C146: x4+x25 <=1 
C147: x4+x26-y4_26 <=1 
C148: x4+x27-y4_27 <=1 
C149: x4+x28 <=1 
C150: x4+x29 <=1 
C151: x4+x31 <=1 
C152: x4+x34-y4_34 <=1 
C153: x4+x35-y4_35 <=1 
C154: x4+x36-y4_36 <=1 
C155: x4+x37 <=1 
C156: x4+x38-y4_38 <=1 
C157: x4+x39 <=1 
C158: x4+x41-y4_41 <=1 
C159: x4+x42 <=1 
C160: x4+x43-y4_43 <=1 
C161: x4+x44 <=1 
C162: x4+x45-y4_45 <=1 
C163: x4+x46 <=1 
C164: x4+x47 <=1 
C165: x4+x49 <=1 
C166: x4+x54-y4_54 <=1 
C167: x4+x55 <=1 
C168: x4+x56 <=1 
C169: x4+x57 <=1 
C170: x4+x60-y4_60 <=1 
C171: x5+x6-y5_6 <=1 
C172: x5+x7 <=1 
C173: x5+x8-y5_8 <=1 
C174: x5+x9 <=1 
C175: x5+x11 <=1 
C176: x5+x12 <=1 
C177: x5+x13-y5_13 <=1 
C178: x5+x14 <=1 
C179: x5+x17-y5_17 <=1 
C180: x5+x20-y5_20 <=1 
C181: x5+x23 <=1 
C182: x5+x24 <=1 
C183: x5+x26 <=1 
C184: x5+x27 <=1 
C185: x5+x30-y5_30 <=1 
C186: x5+x31 <=1 
C187: x5+x36 <=1 
C188: x5+x37-y5_37 <=1 
C189: x5+x39-y5_39 <=1 
C190: x5+x40-y5_40 <=1 
C191: x5+x41 <=1 
C192: x5+x43-y5_43 <=1 
C193: x5+x44 <=1 
C194: x5+x45-y5_45 <=1 
C195: x5+x46 <=1 
C196: x5+x49 <=1 
C197: x5+x50-y5_50 <=1 
C198: x5+x51-y5_51 <=1 
C199: x5+x53 <=1 
C200: x5+x54 <=1 
C201: x5+x55-y5_55 <=1 
C202: x5+x60 <=1 
C203: x6+x7 <=1 
C204: x6+x8 <=1 
C205: x6+x9-y6_9 <=1 
C206: x6+x10-y6_10 <=1 
C207: x6+x11 <=1 
C208: x6+x12-y6_12 <=1 
C209: x6+x15-y6_15 <=1 
C210: x6+x16-y6_16 <=1 
C211: x6+x17-y6_17 <=1 
C212: x6+x18 <=1 
C213: x6+x20 <=1 
C214: x6+x21-y6_21 <=1 
C215: x6+x22-y6_22 <=1 
C216: x6+x23-y6_23 <=1 
C217: x6+x25 <=1 
C218: x6+x26-y6_26 <=1 
C219: x6+x28 <=1 
C220: x6+x29-y6_29 <=1 
C221: x6+x31 <=1 
C222: x6+x32-y6_32 <=1 
C223: x6+x35 <=1 
C224: x6+x36-y6_36 <=1 
C225: x6+x37 <=1 
C226: x6+x38 <=1 
C227: x6+x40 <=1 
C228: x6+x41-y6_41 <=1 
C229: x6+x43-y6_43 <=1 
C230: x6+x45-y6_45 <=1 
C231: x6+x46 <=1 
C232: x6+x47 <=1 
C233: x6+x48 <=1 
C234: x6+x49-y6_49 <=1 
C235: x6+x51-y6_51 <=1 
C236: x6+x53-y6_53 <=1 
C237: x6+x55-y6_55 <=1 
C238: x6+x57 <=1 
C239: x6+x58 <=1 
C240: x6+x60 <=1 
C241: x7+x8-y7_8 <=1 
C242: x7+x12-y7_12 <=1 
C243: x7+x13 <=1 
C244: x7+x14 <=1 
C245: x7+x15-y7_15 <=1 
C246: x7+x16-y7_16 <=1 
C247: x7+x17 <=1 
C248: x7+x18-y7_18 <=1 
C249: x7+x21-y7_21 <=1 
C250: x7+x22-y7_22 <=1 
C251: x7+x24 <=1 
C252: x7+x26-y7_26 <=1 
C253: x7+x28-y7_28 <=1 
C254: x7+x32-y7_32 <=1 
C255: x7+x33-y7_33 <=1 
C256: x7+x34-y7_34 <=1 
C257: x7+x36-y7_36 <=1 
C258: x7+x39-y7_39 <=1 
C259: x7+x41 <=1 
C260: x7+x42-y7_42 <=1 
C261: x7+x48 <=1 
C262: x7+x49 <=1 
C263: x7+x50 <=1 
C264: x7+x51-y7_51 <=1 
C265: x7+x52 <=1 
C266: x7+x54-y7_54 <=1 
C267: x7+x57-y7_57 <=1 
C268: x7+x60-y7_60 <=1 
C269: x8+x9 <=1 
C270: x8+x11-y8_11 <=1 
C271: x8+x13-y8_13 <=1 
C272: x8+x14-y8_14 <=1 
C273: x8+x16-y8_16 <=1 
C274: x8+x17 <=1 
C275: x8+x18-y8_18 <=1 
C276: x8+x19-y8_19 <=1 
C277: x8+x21 <=1 
C278: x8+x23 <=1 
C279: x8+x24 <=1 
C280: x8+x25 <=1 
C281: x8+x27 <=1 
C282: x8+x28 <=1 
C283: x8+x32-y8_32 <=1 
C284: x8+x33-y8_33 <=1 
C285: x8+x34 <=1 
C286: x8+x35-y8_35 <=1 
C287: x8+x36 <=1 
C288: x8+x38 <=1 
C289: x8+x41-y8_41 <=1 
C290: x8+x43 <=1 
C291: x8+x44-y8_44 <=1 
C292: x8+x48-y8_48 <=1 
C293: x8+x51-y8_51 <=1 
C294: x8+x52 <=1 
C295: x8+x53-y8_53 <=1 
C296: x8+x56-y8_56 <=1 
C297: x8+x57-y8_57 <=1 
C298: x8+x58-y8_58 <=1 
C299: x8+x60 <=1 
C300: x9+x10 <=1 
C301: x9+x11 <=1 
C302: x9+x12 <=1 
C303: x9+x13 <=1 
C304: x9+x14-y9_14 <=1 
C305: x9+x15 <=1 
C306: x9+x16 <=1 
C307: x9+x17-y9_17 <=1 
C308: x9+x19-y9_19 <=1 
C309: x9+x21 <=1 
C310: x9+x23-y9_23 <=1 
C311: x9+x29-y9_29 <=1 
C312: x9+x31 <=1 
C313: x9+x33 <=1 
C314: x9+x34-y9_34 <=1 
C315: x9+x35-y9_35 <=1 
C316: x9+x36 <=1 
C317: x9+x37 <=1 
C318: x9+x40 <=1 
C319: x9+x41 <=1 
C320: x9+x42-y9_42 <=1 
C321: x9+x43-y9_43 <=1 
C322: x9+x44 <=1 
C323: x9+x45-y9_45 <=1 
C324: x9+x46-y9_46 <=1 
C325: x9+x49-y9_49 <=1 
C326: x9+x50 <=1 
C327: x9+x51-y9_51 <=1 
C328: x9+x55-y9_55 <=1 
C329: x9+x57-y9_57 <=1 
C330: x9+x59 <=1 
C331: x9+x60 <=1 
C332: x10+x11 <=1 
C333: x10+x14-y10_14 <=1 
C334: x10+x15-y10_15 <=1 
C335: x10+x16-y10_16 <=1 
C336: x10+x24 <=1 
C337: x10+x25-y10_25 <=1 
C338: x10+x26-y10_26 <=1 
C339: x10+x27-y10_27 <=1 
C340: x10+x28 <=1 
C341: x10+x29 <=1 
C342: x10+x34 <=1 
C343: x10+x35 <=1 
C344: x10+x36-y10_36 <=1 
C345: x10+x38-y10_38 <=1 
C346: x10+x39-y10_39 <=1 
C347: x10+x40 <=1 
C348: x10+x41 <=1 
C349: x10+x44-y10_44 <=1 
C350: x10+x48-y10_48 <=1 
C351: x10+x49 <=1 
C352: x10+x51 <=1 
C353: x10+x52-y10_52 <=1 
C354: x10+x55-y10_55 <=1 
C355: x10+x56 <=1 
C356: x10+x57-y10_57 <=1 
C357: x10+x58 <=1 
C358: x10+x59-y10_59 <=1 
C359: x10+x60-y10_60 <=1 
C360: x11+x13 <=1 
C361: x11+x15-y11_15 <=1 
C362: x11+x18 <=1 
C363: x11+x20 <=1 
C364: x11+x27-y11_27 <=1 
C365: x11+x28 <=1 
C366: x11+x30-y11_30 <=1 
C367: x11+x31 <=1 
C368: x11+x32 <=1 
C369: x11+x33-y11_33 <=1 
C370: x11+x34-y11_34 <=1 
C371: x11+x39 <=1 
C372: x11+x41 <=1 
C373: x11+x48-y11_48 <=1 
C374: x11+x50-y11_50 <=1 
C375: x11+x52-y11_52 <=1 
C376: x11+x53-y11_53 <=1 
C377: x11+x54 <=1 
C378: x11+x55 <=1 
C379: x11+x56-y11_56 <=1 
C380: x11+x58 <=1 
C381: x11+x60-y11_60 <=1 
C382: x12+x13 <=1 
C383: x12+x14-y12_14 <=1 
C384: x12+x15-y12_15 <=1 
C385: x12+x18-y12_18 <=1 
C386: x12+x20-y12_20 <=1 
C387: x12+x21-y12_21 <=1 
C388: x12+x22 <=1 
C389: x12+x23-y12_23 <=1 
C390: x12+x26 <=1 
C391: x12+x27 <=1 
C392: x12+x28 <=1 
C393: x12+x29-y12_29 <=1 
C394: x12+x30 <=1 
C395: x12+x31-y12_31 <=1 
C396: x12+x34 <=1 
C397: x12+x36 <=1 
C398: x12+x38-y12_38 <=1 
C399: x12+x39 <=1 
C400: x12+x40 <=1 
C401: x12+x44 <=1 
C402: x12+x45 <=1 
C403: x12+x48 <=1 
C404: x12+x50-y12_50 <=1 
C405: x12+x52-y12_52 <=1 
C406: x12+x53-y12_53 <=1 
C407: x12+x56-y12_56 <=1 
C408: x12+x57-y12_57 <=1 
C409: x12+x58-y12_58 <=1 
C410: x13+x14 <=1 
C411: x13+x17 <=1 
C412: x13+x18-y13_18 <=1 
C413: x13+x19-y13_19 <=1 
C414: x13+x21 <=1 
C415: x13+x22-y13_22 <=1 
C416: x13+x24 <=1 
C417: x13+x26-y13_26 <=1 
C418: x13+x27 <=1 
C419: x13+x28-y13_28 <=1 
C420: x13+x29 <=1 
C421: x13+x30 <=1 
C422: x13+x33 <=1 
C423: x13+x35-y13_35 <=1 
C424: x13+x36-y13_36 <=1 
C425: x13+x37-y13_37 <=1 
C426: x13+x38 <=1 
C427: x13+x39-y13_39 <=1 
C428: x13+x41 <=1 
C429: x13+x43 <=1 
C430: x13+x44-y13_44 <=1 
C431: x13+x46 <=1 
C432: x13+x47-y13_47 <=1 
C433: x13+x49-y13_49 <=1 
C434: x13+x52 <=1 
C435: x13+x53 <=1 
C436: x13+x54 <=1 
C437: x13+x56 <=1 
C438: x13+x57 <=1 
C439: x13+x58-y13_58 <=1 
C440: x14+x15-y14_15 <=1 
C441: x14+x17 <=1 
C442: x14+x18-y14_18 <=1 
C443: x14+x19 <=1 
C444: x14+x20 <=1 
C445: x14+x21-y14_21 <=1 
C446: x14+x24 <=1 
C447: x14+x25 <=1 
C448: x14+x30-y14_30 <=1 
C449: x14+x32 <=1 
C450: x14+x36 <=1 
C451: x14+x38-y14_38 <=1 
C452: x14+x39-y14_39 <=1 
C453: x14+x41 <=1 
C454: x14+x43-y14_43 <=1 
C455: x14+x44 <=1 
C456: x14+x45-y14_45 <=1 
C457: x14+x46 <=1 
C458: x14+x47 <=1 
C459: x14+x48-y14_48 <=1 
C460: x14+x50 <=1 
C461: x14+x51-y14_51 <=1 
C462: x14+x52-y14_52 <=1 
C463: x14+x53 <=1 
C464: x14+x54-y14_54 <=1 
C465: x14+x55 <=1 
C466: x14+x56-y14_56 <=1 
C467: x14+x57-y14_57 <=1 
C468: x14+x59 <=1 
C469: x14+x60 <=1 
C470: x15+x16-y15_16 <=1 
C471: x15+x18-y15_18 <=1 
C472: x15+x19 <=1 
C473: x15+x21 <=1 
C474: x15+x22 <=1 
C475: x15+x25-y15_25 <=1 
C476: x15+x27-y15_27 <=1 
C477: x15+x28-y15_28 <=1 
C478: x15+x29-y15_29 <=1 
C479: x15+x30-y15_30 <=1 
C480: x15+x31 <=1 
C481: x15+x32-y15_32 <=1 
C482: x15+x34 <=1 
C483: x15+x35 <=1 
C484: x15+x38-y15_38 <=1 
C485: x15+x39 <=1 
C486: x15+x43-y15_43 <=1 
C487: x15+x45-y15_45 <=1 
C488: x15+x46 <=1 
C489: x15+x49 <=1 
C490: x15+x50 <=1 
C491: x15+x51-y15_51 <=1 
C492: x15+x52 <=1 
C493: x15+x53 <=1 
C494: x15+x54-y15_54 <=1 
C495: x15+x55-y15_55 <=1 
C496: x15+x56-y15_56 <=1 
C497: x15+x57 <=1 
C498: x15+x58 <=1 
C499: x15+x60-y15_60 <=1 
C500: x16+x18 <=1 
C501: x16+x19-y16_19 <=1 
C502: x16+x23 <=1 
C503: x16+x25-y16_25 <=1 
C504: x16+x26-y16_26 <=1 
C505: x16+x27 <=1 
C506: x16+x28-y16_28 <=1 
C507: x16+x30-y16_30 <=1 
C508: x16+x33-y16_33 <=1 
C509: x16+x34-y16_34 <=1 
C510: x16+x35-y16_35 <=1 
C511: x16+x38-y16_38 <=1 
C512: x16+x40 <=1 
C513: x16+x42-y16_42 <=1 
C514: x16+x43 <=1 
C515: x16+x44-y16_44 <=1 
C516: x16+x46 <=1 
C517: x16+x47-y16_47 <=1 
C518: x16+x49 <=1 
C519: x16+x50 <=1 
C520: x16+x51 <=1 
C521: x16+x52 <=1 
C522: x16+x56 <=1 
C523: x16+x58-y16_58 <=1 
C524: x16+x59 <=1 
C525: x16+x60-y16_60 <=1 
C526: x17+x18 <=1 
C527: x17+x19-y17_19 <=1 
C528: x17+x20-y17_20 <=1 
C529: x17+x21-y17_21 <=1 
C530: x17+x23-y17_23 <=1 
C531: x17+x26-y17_26 <=1 
C532: x17+x27 <=1 
C533: x17+x29 <=1 
C534: x17+x31 <=1 
C535: x17+x37 <=1 
C536: x17+x38 <=1 
C537: x17+x41-y17_41 <=1 
C538: x17+x44-y17_44 <=1 
C539: x17+x46-y17_46 <=1 
C540: x17+x48-y17_48 <=1 
C541: x17+x50 <=1 
C542: x17+x52 <=1 
C543: x17+x55 <=1 
C544: x17+x56-y17_56 <=1 
C545: x17+x58 <=1 
C546: x17+x59 <=1 
C547: x18+x19 <=1 
C548: x18+x24 <=1 
C549: x18+x29-y18_29 <=1 
C550: x18+x31 <=1 
C551: x18+x35-y18_35 <=1 
C552: x18+x38 <=1 
C553: x18+x39-y18_39 <=1 
C554: x18+x41-y18_41 <=1 
C555: x18+x42-y18_42 <=1 
C556: x18+x43 <=1 
C557: x18+x44 <=1 
C558: x18+x46 <=1 
C559: x18+x47-y18_47 <=1 
C560: x18+x48-y18_48 <=1 
C561: x18+x49 <=1 
C562: x18+x51 <=1 
C563: x18+x54 <=1 
C564: x18+x55 <=1 
C565: x18+x56 <=1 
C566: x18+x58 <=1 
C567: x18+x59 <=1 
C568: x18+x60-y18_60 <=1 
C569: x19+x20-y19_20 <=1 
C570: x19+x21-y19_21 <=1 
C571: x19+x22-y19_22 <=1 
C572: x19+x25-y19_25 <=1 
C573: x19+x27-y19_27 <=1 
C574: x19+x30 <=1 
C575: x19+x31 <=1 
C576: x19+x32 <=1 
C577: x19+x35 <=1 
C578: x19+x36-y19_36 <=1 
C579: x19+x37-y19_37 <=1 
C580: x19+x38-y19_38 <=1 
C581: x19+x40 <=1 
C582: x19+x42-y19_42 <=1 
C583: x19+x43-y19_43 <=1 
C584: x19+x44-y19_44 <=1 
C585: x19+x45-y19_45 <=1 
C586: x19+x46 <=1 
C587: x19+x47 <=1 
C588: x19+x49-y19_49 <=1 
C589: x19+x51 <=1 
C590: x19+x54 <=1 
C591: x19+x55 <=1 
C592: x19+x56-y19_56 <=1 
C593: x19+x58-y19_58 <=1 
C594: x20+x23 <=1 
C595: x20+x25-y20_25 <=1 
C596: x20+x28-y20_28 <=1 
C597: x20+x31 <=1 
C598: x20+x34 <=1 
C599: x20+x35-y20_35 <=1 
C600: x20+x38-y20_38 <=1 
C601: x20+x39-y20_39 <=1 
C602: x20+x40-y20_40 <=1 
C603: x20+x41-y20_41 <=1 
C604: x20+x42-y20_42 <=1 
C605: x20+x43 <=1 
C606: x20+x44-y20_44 <=1 
C607: x20+x45 <=1 
C608: x20+x46-y20_46 <=1 
C609: x20+x48 <=1 
C610: x20+x52 <=1 
C611: x20+x53-y20_53 <=1 
C612: x20+x54 <=1 
C613: x20+x55-y20_55 <=1 
C614: x20+x56 <=1 
C615: x20+x57 <=1 
C616: x20+x59 <=1 
C617: x20+x60 <=1 
C618: x21+x22 <=1 
C619: x21+x24 <=1 
C620: x21+x26-y21_26 <=1 
C621: x21+x28-y21_28 <=1 
C622: x21+x30 <=1 
C623: x21+x32-y21_32 <=1 
C624: x21+x34-y21_34 <=1 
C625: x21+x36-y21_36 <=1 
C626: x21+x37-y21_37 <=1 
C627: x21+x38-y21_38 <=1 
C628: x21+x39 <=1 
C629: x21+x41 <=1 
C630: x21+x42 <=1 
C631: x21+x43 <=1 
C632: x21+x45-y21_45 <=1 
C633: x21+x47 <=1 
C634: x21+x48-y21_48 <=1 
C635: x21+x50 <=1 
C636: x21+x51 <=1 
C637: x21+x52 <=1 
C638: x21+x53 <=1 
C639: x21+x54 <=1 
C640: x21+x56 <=1 
C641: x21+x57-y21_57 <=1 
C642: x21+x58 <=1 
C643: x22+x23-y22_23 <=1 
C644: x22+x24 <=1 
C645: x22+x25-y22_25 <=1 
C646: x22+x26-y22_26 <=1 
C647: x22+x27-y22_27 <=1 
C648: x22+x28 <=1 
C649: x22+x29-y22_29 <=1 
C650: x22+x31 <=1 
C651: x22+x35-y22_35 <=1 
C652: x22+x36 <=1 
C653: x22+x37-y22_37 <=1 
C654: x22+x38-y22_38 <=1 
C655: x22+x40-y22_40 <=1 
C656: x22+x42 <=1 
C657: x22+x44 <=1 
C658: x22+x49 <=1 
C659: x22+x51-y22_51 <=1 
C660: x22+x53 <=1 
C661: x22+x54-y22_54 <=1 
C662: x22+x57 <=1 
C663: x22+x58 <=1 
C664: x23+x24-y23_24 <=1 
C665: x23+x26 <=1 
C666: x23+x27 <=1 
C667: x23+x29-y23_29 <=1 
C668: x23+x31-y23_31 <=1 
C669: x23+x32-y23_32 <=1 
C670: x23+x36-y23_36 <=1 
C671: x23+x37-y23_37 <=1 
C672: x23+x41-y23_41 <=1 
C673: x23+x42 <=1 
C674: x23+x43 <=1 
C675: x23+x44-y23_44 <=1 
C676: x23+x51 <=1 
C677: x23+x54-y23_54 <=1 
C678: x23+x57 <=1 
C679: x23+x60-y23_60 <=1 
C680: x24+x26-y24_26 <=1 
C681: x24+x27-y24_27 <=1 
C682: x24+x29 <=1 
C683: x24+x30 <=1 
C684: x24+x33 <=1 
C685: x24+x35-y24_35 <=1 
C686: x24+x37-y24_37 <=1 
C687: x24+x38 <=1 
C688: x24+x39 <=1 
C689: x24+x40-y24_40 <=1 
C690: x24+x41 <=1 
C691: x24+x42-y24_42 <=1 
C692: x24+x44 <=1 
C693: x24+x45-y24_45 <=1 
C694: x24+x47-y24_47 <=1 
C695: x24+x48 <=1 
C696: x24+x49 <=1 
C697: x24+x50 <=1 
C698: x24+x53-y24_53 <=1 
C699: x24+x57-y24_57 <=1 
C700: x25+x26 <=1 
C701: x25+x27 <=1 
C702: x25+x29-y25_29 <=1 
C703: x25+x31 <=1 
C704: x25+x32 <=1 
C705: x25+x34-y25_34 <=1 
C706: x25+x36-y25_36 <=1 
C707: x25+x39-y25_39 <=1 
C708: x25+x43 <=1 
C709: x25+x44 <=1 
C710: x25+x46-y25_46 <=1 
C711: x25+x47 <=1 
C712: x25+x50-y25_50 <=1 
C713: x25+x51 <=1 
C714: x25+x52 <=1 
C715: x25+x53-y25_53 <=1 
C716: x25+x54-y25_54 <=1 
C717: x25+x56 <=1 
C718: x25+x57 <=1 
C719: x25+x59 <=1 
C720: x25+x60 <=1 
C721: x26+x29-y26_29 <=1 
C722: x26+x30 <=1 
C723: x26+x31-y26_31 <=1 
C724: x26+x32-y26_32 <=1 
C725: x26+x33-y26_33 <=1 
C726: x26+x34-y26_34 <=1 
C727: x26+x37-y26_37 <=1 
C728: x26+x39 <=1 
C729: x26+x40-y26_40 <=1 
C730: x26+x41 <=1 
C731: x26+x42-y26_42 <=1 
C732: x26+x43-y26_43 <=1 
C733: x26+x44 <=1 
C734: x26+x45 <=1 
C735: x26+x46-y26_46 <=1 
C736: x26+x48 <=1 
C737: x26+x49-y26_49 <=1 
C738: x26+x50 <=1 
C739: x26+x51 <=1 
C740: x26+x55-y26_55 <=1 
C741: x26+x56-y26_56 <=1 
C742: x26+x57-y26_57 <=1 
C743: x26+x59 <=1 
C744: x26+x60-y26_60 <=1 
C745: x27+x28-y27_28 <=1 
C746: x27+x29-y27_29 <=1 
C747: x27+x32 <=1 
C748: x27+x35 <=1 
C749: x27+x36-y27_36 <=1 
C750: x27+x38 <=1 
C751: x27+x40-y27_40 <=1 
C752: x27+x41-y27_41 <=1 
C753: x27+x43-y27_43 <=1 
C754: x27+x44-y27_44 <=1 
C755: x27+x46-y27_46 <=1 
C756: x27+x47 <=1 
C757: x27+x48 <=1 
C758: x27+x50-y27_50 <=1 
C759: x27+x52-y27_52 <=1 
C760: x27+x53 <=1 
C761: x27+x54 <=1 
C762: x27+x58 <=1 
C763: x28+x29 <=1 
C764: x28+x30-y28_30 <=1 
C765: x28+x31 <=1 
C766: x28+x33-y28_33 <=1 
C767: x28+x36 <=1 
C768: x28+x37 <=1 
C769: x28+x38 <=1 
C770: x28+x42-y28_42 <=1 
C771: x28+x44 <=1 
C772: x28+x46-y28_46 <=1 
C773: x28+x47-y28_47 <=1 
C774: x28+x49 <=1 
C775: x28+x51-y28_51 <=1 
C776: x28+x55 <=1 
C777: x28+x58-y28_58 <=1 
C778: x28+x60 <=1 
C779: x29+x31-y29_31 <=1 
C780: x29+x33-y29_33 <=1 
C781: x29+x34 <=1 
C782: x29+x35-y29_35 <=1 
C783: x29+x37 <=1 
C784: x29+x39-y29_39 <=1 
C785: x29+x40-y29_40 <=1 
C786: x29+x43-y29_43 <=1 
C787: x29+x47-y29_47 <=1 
C788: x29+x49-y29_49 <=1 
C789: x29+x51 <=1 
C790: x29+x52 <=1 
C791: x29+x53-y29_53 <=1 
C792: x29+x54 <=1 
C793: x29+x57-y29_57 <=1 
C794: x29+x59-y29_59 <=1 
C795: x30+x31 <=1 
C796: x30+x32 <=1 
C797: x30+x33-y30_33 <=1 
C798: x30+x34-y30_34 <=1 
C799: x30+x36 <=1 
C800: x30+x38-y30_38 <=1 
C801: x30+x39-y30_39 <=1 
C802: x30+x40 <=1 
C803: x30+x41 <=1 
C804: x30+x42-y30_42 <=1 
C805: x30+x43 <=1 
C806: x30+x45 <=1 
C807: x30+x46-y30_46 <=1 
C808: x30+x50-y30_50 <=1 
C809: x30+x51 <=1 
C810: x30+x53-y30_53 <=1 
C811: x30+x54-y30_54 <=1 
C812: x30+x55 <=1 
C813: x30+x58-y30_58 <=1 
C814: x30+x60-y30_60 <=1 
C815: x31+x33 <=1 
C816: x31+x34 <=1 
C817: x31+x35 <=1 
C818: x31+x36 <=1 
C819: x31+x37 <=1 
C820: x31+x39 <=1 
C821: x31+x42 <=1 
C822: x31+x45-y31_45 <=1 
C823: x31+x46 <=1 
C824: x31+x47 <=1 
C825: x31+x48 <=1 
C826: x31+x50 <=1 
C827: x31+x53 <=1 
C828: x31+x54 <=1 
C829: x31+x55-y31_55 <=1 
C830: x31+x57-y31_57 <=1 
C831: x31+x58-y31_58 <=1 
C832: x31+x59-y31_59 <=1 
C833: x31+x60-y31_60 <=1 
C834: x32+x34 <=1 
C835: x32+x37-y32_37 <=1 
C836: x32+x38-y32_38 <=1 
C837: x32+x39-y32_39 <=1 
C838: x32+x41 <=1 
C839: x32+x42-y32_42 <=1 
C840: x32+x45 <=1 
C841: x32+x46-y32_46 <=1 
C842: x32+x48-y32_48 <=1 
C843: x32+x49 <=1 
C844: x32+x50 <=1 
C845: x32+x54 <=1 
C846: x32+x56-y32_56 <=1 
C847: x32+x57 <=1 
C848: x32+x58-y32_58 <=1 
C849: x32+x59 <=1 
C850: x32+x60-y32_60 <=1 
C851: x33+x34-y33_34 <=1 
C852: x33+x35 <=1 
C853: x33+x37-y33_37 <=1 
C854: x33+x38 <=1 
C855: x33+x39 <=1 
C856: x33+x43 <=1 
C857: x33+x44 <=1 
C858: x33+x48-y33_48 <=1 
C859: x33+x49 <=1 
C860: x33+x50 <=1 
C861: x33+x51-y33_51 <=1 
C862: x33+x52 <=1 
C863: x33+x53-y33_53 <=1 
C864: x33+x54 <=1 
C865: x33+x56-y33_56 <=1 
C866: x33+x58-y33_58 <=1 
C867: x33+x60-y33_60 <=1 
C868: x34+x35 <=1 
C869: x34+x36 <=1 
C870: x34+x39-y34_39 <=1 
C871: x34+x43 <=1 
C872: x34+x44-y34_44 <=1 
C873: x34+x45-y34_45 <=1 
C874: x34+x47 <=1 
C875: x34+x48-y34_48 <=1 
C876: x34+x50 <=1 
C877: x34+x51 <=1 
C878: x34+x52 <=1 
C879: x34+x53-y34_53 <=1 
C880: x34+x54 <=1 
C881: x34+x55-y34_55 <=1 
C882: x34+x57-y34_57 <=1 
C883: x34+x58-y34_58 <=1 
C884: x34+x59-y34_59 <=1 
C885: x34+x60-y34_60 <=1 
C886: x35+x36-y35_36 <=1 
C887: x35+x39 <=1 
C888: x35+x40 <=1 
C889: x35+x42-y35_42 <=1 
C890: x35+x44 <=1 
C891: x35+x47 <=1 
C892: x35+x48-y35_48 <=1 
C893: x35+x49-y35_49 <=1 
C894: x35+x50 <=1 
C895: x35+x52-y35_52 <=1 
C896: x35+x54 <=1 
C897: x35+x55-y35_55 <=1 
C898: x35+x58 <=1 
C899: x36+x38 <=1 
C900: x36+x39 <=1 
C901: x36+x41 <=1 
C902: x36+x43 <=1 
C903: x36+x44-y36_44 <=1 
C904: x36+x45 <=1 
C905: x36+x49 <=1 
C906: x36+x51 <=1 
C907: x36+x53-y36_53 <=1 
C908: x36+x54 <=1 
C909: x36+x55 <=1 
C910: x36+x57-y36_57 <=1 
C911: x36+x59 <=1 
C912: x37+x40-y37_40 <=1 
C913: x37+x42 <=1 
C914: x37+x43-y37_43 <=1 
C915: x37+x45 <=1 
C916: x37+x50-y37_50 <=1 
C917: x37+x58 <=1 
C918: x37+x59-y37_59 <=1 
C919: x37+x60 <=1 
C920: x38+x39 <=1 
C921: x38+x40-y38_40 <=1 
C922: x38+x42-y38_42 <=1 
C923: x38+x43 <=1 
C924: x38+x44-y38_44 <=1 
C925: x38+x46-y38_46 <=1 
C926: x38+x48 <=1 
C927: x38+x49-y38_49 <=1 
C928: x38+x52 <=1 
C929: x38+x53 <=1 
C930: x38+x54 <=1 
C931: x38+x56 <=1 
C932: x38+x58-y38_58 <=1 
C933: x38+x59 <=1 
C934: x38+x60 <=1 
C935: x39+x44 <=1 
C936: x39+x53 <=1 
C937: x39+x55-y39_55 <=1 
C938: x39+x57 <=1 
C939: x39+x58-y39_58 <=1 
C940: x39+x60 <=1 
C941: x40+x41 <=1 
C942: x40+x44 <=1 
C943: x40+x45-y40_45 <=1 
C944: x40+x46 <=1 
C945: x40+x48 <=1 
C946: x40+x49-y40_49 <=1 
C947: x40+x50-y40_50 <=1 
C948: x40+x51 <=1 
C949: x40+x53-y40_53 <=1 
C950: x40+x55-y40_55 <=1 
C951: x40+x57-y40_57 <=1 
C952: x40+x59-y40_59 <=1 
C953: x40+x60 <=1 
C954: x41+x43-y41_43 <=1 
C955: x41+x44-y41_44 <=1 
C956: x41+x45-y41_45 <=1 
C957: x41+x46-y41_46 <=1 
C958: x41+x47 <=1 
C959: x41+x50-y41_50 <=1 
C960: x41+x51 <=1 
C961: x41+x52 <=1 
C962: x41+x53-y41_53 <=1 
C963: x41+x54-y41_54 <=1 
C964: x41+x55-y41_55 <=1 
C965: x41+x57 <=1 
C966: x41+x59-y41_59 <=1 
C967: x41+x60-y41_60 <=1 
C968: x42+x44-y42_44 <=1 
C969: x42+x46 <=1 
C970: x42+x47 <=1 
C971: x42+x49 <=1 
C972: x42+x50 <=1 
C973: x42+x51 <=1 
C974: x42+x57-y42_57 <=1 
C975: x42+x58 <=1 
C976: x42+x59-y42_59 <=1 
C977: x42+x60 <=1 
C978: x43+x45 <=1 
C979: x43+x46-y43_46 <=1 
C980: x43+x47-y43_47 <=1 
C981: x43+x48-y43_48 <=1 
C982: x43+x49 <=1 
C983: x43+x51 <=1 
C984: x43+x53 <=1 
C985: x43+x54-y43_54 <=1 
C986: x43+x55-y43_55 <=1 
C987: x43+x57-y43_57 <=1 
C988: x44+x46 <=1 
C989: x44+x48-y44_48 <=1 
C990: x44+x49 <=1 
C991: x44+x50-y44_50 <=1 
C992: x44+x51-y44_51 <=1 
C993: x44+x52-y44_52 <=1 
C994: x44+x53 <=1 
C995: x44+x55-y44_55 <=1 
C996: x44+x56-y44_56 <=1 
C997: x44+x57 <=1 
C998: x44+x60-y44_60 <=1 
C999: x45+x46 <=1 
C1000: x45+x48 <=1 
C1001: x45+x50 <=1 
C1002: x45+x51 <=1 
C1003: x45+x53-y45_53 <=1 
C1004: x45+x55-y45_55 <=1 
C1005: x45+x56-y45_56 <=1 
C1006: x45+x57 <=1 
C1007: x45+x60-y45_60 <=1 
C1008: x46+x47 <=1 
C1009: x46+x49 <=1 
C1010: x46+x52 <=1 
C1011: x46+x53 <=1 
C1012: x46+x57-y46_57 <=1 
C1013: x46+x59 <=1 
C1014: x47+x48-y47_48 <=1 
C1015: x47+x49 <=1 
C1016: x47+x51 <=1 
C1017: x47+x52 <=1 
C1018: x47+x54 <=1 
C1019: x47+x55 <=1 
C1020: x47+x56-y47_56 <=1 
C1021: x47+x58 <=1 
C1022: x47+x59 <=1 
C1023: x47+x60 <=1 
C1024: x48+x49-y48_49 <=1 
C1025: x48+x52 <=1 
C1026: x48+x53 <=1 
C1027: x48+x55-y48_55 <=1 
C1028: x48+x56-y48_56 <=1 
C1029: x48+x57 <=1 
C1030: x48+x59-y48_59 <=1 
C1031: x48+x60-y48_60 <=1 
C1032: x49+x54-y49_54 <=1 
C1033: x49+x55-y49_55 <=1 
C1034: x49+x57-y49_57 <=1 
C1035: x49+x59-y49_59 <=1 
C1036: x49+x60 <=1 
C1037: x50+x53-y50_53 <=1 
C1038: x50+x56 <=1 
C1039: x50+x57 <=1 
C1040: x50+x58 <=1 
C1041: x51+x53-y51_53 <=1 
C1042: x51+x56-y51_56 <=1 
C1043: x51+x57-y51_57 <=1 
C1044: x51+x59-y51_59 <=1 
C1045: x51+x60-y51_60 <=1 
C1046: x52+x53-y52_53 <=1 
C1047: x52+x55 <=1 
C1048: x52+x57-y52_57 <=1 
C1049: x53+x54-y53_54 <=1 
C1050: x53+x59-y53_59 <=1 
C1051: x54+x55 <=1 
C1052: x54+x59-y54_59 <=1 
C1053: x55+x58 <=1 
C1054: x55+x59-y55_59 <=1 
C1055: x56+x58 <=1 
C1056: x56+x59-y56_59 <=1 
C1057: x57+x59 <=1 
C1058: x57+x60-y57_60 <=1 

binary
x0
x1
x2
x3
x4
x5
x6
x7
x8
x9
x10
x11
x12
x13
x14
x15
x16
x17
x18
x19
x20
x21
x22
x23
x24
x25
x26
x27
x28
x29
x30
x31
x32
x33
x34
x35
x36
x37
x38
x39
x40
x41
x42
x43
x44
x45
x46
x47
x48
x49
x50
x51
x52
x53
x54
x55
x56
x57
x58
x59
x60
