problem_generation/data/GISP/train/er_n=61_m=1058_p=0.60_SET2_setparam=100.00_alpha=0.50_714.sol
objective value:                                 1182
x3                                                  1 	(obj:100)
x5                                                  1 	(obj:100)
x8                                                  1 	(obj:100)
x10                                                 1 	(obj:100)
x18                                                 1 	(obj:100)
x20                                                 1 	(obj:100)
x22                                                 1 	(obj:100)
x30                                                 1 	(obj:100)
x37                                                 1 	(obj:100)
x39                                                 1 	(obj:100)
x47                                                 1 	(obj:100)
x50                                                 1 	(obj:100)
y8_18                                               1 	(obj:-1)
y22_37                                              1 	(obj:-1)
y3_37                                               1 	(obj:-1)
y5_50                                               1 	(obj:-1)
y10_39                                              1 	(obj:-1)
y20_39                                              1 	(obj:-1)
y5_8                                                1 	(obj:-1)
y5_30                                               1 	(obj:-1)
y5_39                                               1 	(obj:-1)
y30_50                                              1 	(obj:-1)
y18_39                                              1 	(obj:-1)
y18_47                                              1 	(obj:-1)
y5_20                                               1 	(obj:-1)
y5_37                                               1 	(obj:-1)
y30_39                                              1 	(obj:-1)
y3_39                                               1 	(obj:-1)
y37_50                                              1 	(obj:-1)
y3_47                                               1 	(obj:-1)
